
  32    4
  10   10   10   10

   0   0   0   0   0   4 2 3 9 12 
   1   0   1   1   1   3 24 17 4 
   7   0   7   5   5   3 22 17 5 
   4   1   2   7   0   2 22 5 
   6   5   5   6   0   2 15 6 
   8   3   4   0   5   1 7 
   7   2   4   0   9   2 30 8 
   1   7   3   0   6   2 16 10 
   9   0   5   3   2   4 29 18 16 13 
   1   4   0   2   6   2 29 11 
   3   0   4   3   3   3 28 18 13 
   9   5   4   6   0   3 27 19 18 
   5   4   5   0   3   1 14 
   6   0   3   6   6   3 27 26 19 
   1   6   5   0   5   2 19 18 
   2   0   4   1   5   2 28 19 
   6   6   5   0   1   3 28 26 21 
   2   0   4   3   2   2 26 20 
   3   3   3   4   0   1 20 
   2   0   2   2   2   1 21 
   9   0   4   4   6   1 23 
   7   6   1   6   0   1 23 
   7   3   7   0   2   1 25 
  10   3   0   4   3   1 31 
   7   6   3   2   0   1 32
   8   2   7   0   5   1 32
   2   2   2   0   5   1 32
   4   3   6   2   0   1 32
   3   4   4   5   0   1 32
   5   5   6   6   0   1 32
   1   0   2   6   2   1 32
   0   0   0   0   0   0 
